p edge 1035 1980
p 1 52
p 1 55
p 1 64
p 1 73
p 1 106
p 1 121
p 1 136
p 1 367
p 1 370
p 1 379
p 1 388
p 1 421
p 1 436
p 1 451
p 1 472
p 1 475
p 1 484
p 1 493
p 1 526
p 1 541
p 1 556
p 1 991
p 2 56
p 2 58
p 2 61
p 2 67
p 2 109
p 2 124
p 2 139
p 2 373
p 2 376
p 2 382
p 2 424
p 2 439
p 2 454
p 2 478
p 2 481
p 2 487
p 2 529
p 2 544
p 2 559
p 2 580
p 2 685
p 2 994
p 3 46
p 3 59
p 3 65
p 3 70
p 3 112
p 3 127
p 3 142
p 3 361
p 3 385
p 3 427
p 3 442
p 3 457
p 3 466
p 3 490
p 3 532
p 3 547
p 3 562
p 3 583
p 3 589
p 3 688
p 3 694
p 3 997
p 4 47
p 4 49
p 4 68
p 4 74
p 4 115
p 4 130
p 4 145
p 4 364
p 4 430
p 4 445
p 4 460
p 4 469
p 4 535
p 4 550
p 4 565
p 4 571
p 4 592
p 4 598
p 4 676
p 4 697
p 4 703
p 4 1000
p 5 50
p 5 53
p 5 62
p 5 71
p 5 118
p 5 133
p 5 148
p 5 433
p 5 448
p 5 463
p 5 538
p 5 553
p 5 568
p 5 574
p 5 577
p 5 586
p 5 595
p 5 679
p 5 682
p 5 691
p 5 700
p 5 1003
p 6 48
p 6 63
p 6 82
p 6 85
p 6 94
p 6 103
p 6 137
p 6 397
p 6 400
p 6 409
p 6 418
p 6 502
p 6 505
p 6 514
p 6 523
p 6 661
p 6 766
p 6 781
p 6 796
p 6 886
p 6 901
p 6 1006
p 7 51
p 7 66
p 7 86
p 7 88
p 7 91
p 7 97
p 7 140
p 7 403
p 7 406
p 7 412
p 7 508
p 7 511
p 7 517
p 7 610
p 7 664
p 7 715
p 7 769
p 7 784
p 7 799
p 7 889
p 7 904
p 7 1009
p 8 54
p 8 69
p 8 76
p 8 89
p 8 95
p 8 100
p 8 143
p 8 391
p 8 415
p 8 496
p 8 520
p 8 613
p 8 619
p 8 667
p 8 718
p 8 724
p 8 772
p 8 787
p 8 802
p 8 892
p 8 907
p 8 1012
p 9 57
p 9 72
p 9 77
p 9 79
p 9 98
p 9 104
p 9 146
p 9 394
p 9 499
p 9 601
p 9 622
p 9 628
p 9 670
p 9 706
p 9 727
p 9 733
p 9 775
p 9 790
p 9 805
p 9 895
p 9 910
p 9 1015
p 10 60
p 10 75
p 10 80
p 10 83
p 10 92
p 10 101
p 10 149
p 10 604
p 10 607
p 10 616
p 10 625
p 10 673
p 10 709
p 10 712
p 10 721
p 10 730
p 10 778
p 10 793
p 10 808
p 10 898
p 10 913
p 10 1018
p 11 78
p 11 93
p 11 113
p 11 116
p 11 125
p 11 134
p 11 138
p 11 637
p 11 640
p 11 649
p 11 658
p 11 742
p 11 745
p 11 754
p 11 763
p 11 811
p 11 826
p 11 871
p 11 916
p 11 931
p 11 976
p 11 1021
p 12 81
p 12 96
p 12 117
p 12 119
p 12 122
p 12 128
p 12 141
p 12 643
p 12 646
p 12 652
p 12 748
p 12 751
p 12 757
p 12 814
p 12 829
p 12 850
p 12 874
p 12 919
p 12 934
p 12 955
p 12 979
p 12 1024
p 13 84
p 13 99
p 13 107
p 13 120
p 13 126
p 13 131
p 13 144
p 13 631
p 13 655
p 13 736
p 13 760
p 13 817
p 13 832
p 13 853
p 13 859
p 13 877
p 13 922
p 13 937
p 13 958
p 13 964
p 13 982
p 13 1027
p 14 87
p 14 102
p 14 108
p 14 110
p 14 129
p 14 135
p 14 147
p 14 634
p 14 739
p 14 820
p 14 835
p 14 841
p 14 862
p 14 868
p 14 880
p 14 925
p 14 940
p 14 946
p 14 967
p 14 973
p 14 985
p 14 1030
p 15 90
p 15 105
p 15 111
p 15 114
p 15 123
p 15 132
p 15 150
p 15 823
p 15 838
p 15 844
p 15 847
p 15 856
p 15 865
p 15 883
p 15 928
p 15 943
p 15 949
p 15 952
p 15 961
p 15 970
p 15 988
p 15 1033
p 16 157
p 16 160
p 16 169
p 16 178
p 16 211
p 16 226
p 16 241
p 16 578
p 16 581
p 16 590
p 16 599
p 16 632
p 16 647
p 16 662
p 16 788
p 16 791
p 16 800
p 16 809
p 16 842
p 16 857
p 16 872
p 16 992
p 17 161
p 17 163
p 17 166
p 17 172
p 17 214
p 17 229
p 17 244
p 17 371
p 17 584
p 17 587
p 17 593
p 17 635
p 17 650
p 17 665
p 17 794
p 17 797
p 17 803
p 17 845
p 17 860
p 17 875
p 17 896
p 17 995
p 18 151
p 18 164
p 18 170
p 18 175
p 18 217
p 18 232
p 18 247
p 18 374
p 18 380
p 18 572
p 18 596
p 18 638
p 18 653
p 18 668
p 18 782
p 18 806
p 18 848
p 18 863
p 18 878
p 18 899
p 18 905
p 18 998
p 19 152
p 19 154
p 19 173
p 19 179
p 19 220
p 19 235
p 19 250
p 19 362
p 19 383
p 19 389
p 19 575
p 19 641
p 19 656
p 19 671
p 19 785
p 19 851
p 19 866
p 19 881
p 19 887
p 19 908
p 19 914
p 19 1001
p 20 155
p 20 158
p 20 167
p 20 176
p 20 223
p 20 238
p 20 253
p 20 365
p 20 368
p 20 377
p 20 386
p 20 644
p 20 659
p 20 674
p 20 854
p 20 869
p 20 884
p 20 890
p 20 893
p 20 902
p 20 911
p 20 1004
p 21 153
p 21 168
p 21 187
p 21 190
p 21 199
p 21 208
p 21 242
p 21 452
p 21 467
p 21 482
p 21 608
p 21 611
p 21 620
p 21 629
p 21 677
p 21 692
p 21 818
p 21 821
p 21 830
p 21 839
p 21 977
p 21 1007
p 22 156
p 22 171
p 22 191
p 22 193
p 22 196
p 22 202
p 22 245
p 22 401
p 22 455
p 22 470
p 22 485
p 22 614
p 22 617
p 22 623
p 22 680
p 22 695
p 22 824
p 22 827
p 22 833
p 22 926
p 22 980
p 22 1010
p 23 159
p 23 174
p 23 181
p 23 194
p 23 200
p 23 205
p 23 248
p 23 404
p 23 410
p 23 458
p 23 473
p 23 488
p 23 602
p 23 626
p 23 683
p 23 698
p 23 812
p 23 836
p 23 929
p 23 935
p 23 983
p 23 1013
p 24 162
p 24 177
p 24 182
p 24 184
p 24 203
p 24 209
p 24 251
p 24 392
p 24 413
p 24 419
p 24 461
p 24 476
p 24 491
p 24 605
p 24 686
p 24 701
p 24 815
p 24 917
p 24 938
p 24 944
p 24 986
p 24 1016
p 25 165
p 25 180
p 25 185
p 25 188
p 25 197
p 25 206
p 25 254
p 25 395
p 25 398
p 25 407
p 25 416
p 25 464
p 25 479
p 25 494
p 25 689
p 25 704
p 25 920
p 25 923
p 25 932
p 25 941
p 25 989
p 25 1019
p 26 183
p 26 198
p 26 218
p 26 221
p 26 230
p 26 239
p 26 243
p 26 428
p 26 431
p 26 440
p 26 449
p 26 497
p 26 512
p 26 557
p 26 707
p 26 722
p 26 767
p 26 953
p 26 956
p 26 965
p 26 974
p 26 1022
p 27 186
p 27 201
p 27 222
p 27 224
p 27 227
p 27 233
p 27 246
p 27 434
p 27 437
p 27 443
p 27 500
p 27 515
p 27 536
p 27 560
p 27 710
p 27 725
p 27 746
p 27 770
p 27 959
p 27 962
p 27 968
p 27 1025
p 28 189
p 28 204
p 28 212
p 28 225
p 28 231
p 28 236
p 28 249
p 28 422
p 28 446
p 28 503
p 28 518
p 28 539
p 28 545
p 28 563
p 28 713
p 28 728
p 28 749
p 28 755
p 28 773
p 28 947
p 28 971
p 28 1028
p 29 192
p 29 207
p 29 213
p 29 215
p 29 234
p 29 240
p 29 252
p 29 425
p 29 506
p 29 521
p 29 527
p 29 548
p 29 554
p 29 566
p 29 716
p 29 731
p 29 737
p 29 758
p 29 764
p 29 776
p 29 950
p 29 1031
p 30 195
p 30 210
p 30 216
p 30 219
p 30 228
p 30 237
p 30 255
p 30 509
p 30 524
p 30 530
p 30 533
p 30 542
p 30 551
p 30 569
p 30 719
p 30 734
p 30 740
p 30 743
p 30 752
p 30 761
p 30 779
p 30 1034
p 31 262
p 31 265
p 31 274
p 31 283
p 31 316
p 31 331
p 31 346
p 31 684
p 31 687
p 31 696
p 31 705
p 31 738
p 31 753
p 31 768
p 31 894
p 31 897
p 31 906
p 31 915
p 31 948
p 31 963
p 31 978
p 31 993
p 32 266
p 32 268
p 32 271
p 32 277
p 32 319
p 32 334
p 32 349
p 32 477
p 32 690
p 32 693
p 32 699
p 32 741
p 32 756
p 32 771
p 32 792
p 32 900
p 32 903
p 32 909
p 32 951
p 32 966
p 32 981
p 32 996
p 33 256
p 33 269
p 33 275
p 33 280
p 33 322
p 33 337
p 33 352
p 33 480
p 33 486
p 33 678
p 33 702
p 33 744
p 33 759
p 33 774
p 33 795
p 33 801
p 33 888
p 33 912
p 33 954
p 33 969
p 33 984
p 33 999
p 34 257
p 34 259
p 34 278
p 34 284
p 34 325
p 34 340
p 34 355
p 34 468
p 34 489
p 34 495
p 34 681
p 34 747
p 34 762
p 34 777
p 34 783
p 34 804
p 34 810
p 34 891
p 34 957
p 34 972
p 34 987
p 34 1002
p 35 260
p 35 263
p 35 272
p 35 281
p 35 328
p 35 343
p 35 358
p 35 471
p 35 474
p 35 483
p 35 492
p 35 750
p 35 765
p 35 780
p 35 786
p 35 789
p 35 798
p 35 807
p 35 960
p 35 975
p 35 990
p 35 1005
p 36 258
p 36 273
p 36 292
p 36 295
p 36 304
p 36 313
p 36 347
p 36 363
p 36 378
p 36 558
p 36 573
p 36 588
p 36 714
p 36 717
p 36 726
p 36 735
p 36 873
p 36 924
p 36 927
p 36 936
p 36 945
p 36 1008
p 37 261
p 37 276
p 37 296
p 37 298
p 37 301
p 37 307
p 37 350
p 37 366
p 37 381
p 37 507
p 37 561
p 37 576
p 37 591
p 37 720
p 37 723
p 37 729
p 37 822
p 37 876
p 37 930
p 37 933
p 37 939
p 37 1011
p 38 264
p 38 279
p 38 286
p 38 299
p 38 305
p 38 310
p 38 353
p 38 369
p 38 384
p 38 510
p 38 516
p 38 564
p 38 579
p 38 594
p 38 708
p 38 732
p 38 825
p 38 831
p 38 879
p 38 918
p 38 942
p 38 1014
p 39 267
p 39 282
p 39 287
p 39 289
p 39 308
p 39 314
p 39 356
p 39 372
p 39 387
p 39 498
p 39 519
p 39 525
p 39 567
p 39 582
p 39 597
p 39 711
p 39 813
p 39 834
p 39 840
p 39 882
p 39 921
p 39 1017
p 40 270
p 40 285
p 40 290
p 40 293
p 40 302
p 40 311
p 40 359
p 40 375
p 40 390
p 40 501
p 40 504
p 40 513
p 40 522
p 40 570
p 40 585
p 40 600
p 40 816
p 40 819
p 40 828
p 40 837
p 40 885
p 40 1020
p 41 288
p 41 303
p 41 323
p 41 326
p 41 335
p 41 344
p 41 348
p 41 393
p 41 408
p 41 453
p 41 534
p 41 537
p 41 546
p 41 555
p 41 603
p 41 618
p 41 663
p 41 849
p 41 852
p 41 861
p 41 870
p 41 1023
p 42 291
p 42 306
p 42 327
p 42 329
p 42 332
p 42 338
p 42 351
p 42 396
p 42 411
p 42 432
p 42 456
p 42 540
p 42 543
p 42 549
p 42 606
p 42 621
p 42 642
p 42 666
p 42 855
p 42 858
p 42 864
p 42 1026
p 43 294
p 43 309
p 43 317
p 43 330
p 43 336
p 43 341
p 43 354
p 43 399
p 43 414
p 43 435
p 43 441
p 43 459
p 43 528
p 43 552
p 43 609
p 43 624
p 43 645
p 43 651
p 43 669
p 43 843
p 43 867
p 43 1029
p 44 297
p 44 312
p 44 318
p 44 320
p 44 339
p 44 345
p 44 357
p 44 402
p 44 417
p 44 423
p 44 444
p 44 450
p 44 462
p 44 531
p 44 612
p 44 627
p 44 633
p 44 654
p 44 660
p 44 672
p 44 846
p 44 1032
p 45 300
p 45 315
p 45 321
p 45 324
p 45 333
p 45 342
p 45 360
p 45 405
p 45 420
p 45 426
p 45 429
p 45 438
p 45 447
p 45 465
p 45 615
p 45 630
p 45 636
p 45 639
p 45 648
p 45 657
p 45 675
p 45 1035
p 46 47
p 46 48
p 47 48
p 49 50
p 49 51
p 50 51
p 52 53
p 52 54
p 53 54
p 55 56
p 55 57
p 56 57
p 58 59
p 58 60
p 59 60
p 61 62
p 61 63
p 62 63
p 64 65
p 64 66
p 65 66
p 67 68
p 67 69
p 68 69
p 70 71
p 70 72
p 71 72
p 73 74
p 73 75
p 74 75
p 76 77
p 76 78
p 77 78
p 79 80
p 79 81
p 80 81
p 82 83
p 82 84
p 83 84
p 85 86
p 85 87
p 86 87
p 88 89
p 88 90
p 89 90
p 91 92
p 91 93
p 92 93
p 94 95
p 94 96
p 95 96
p 97 98
p 97 99
p 98 99
p 100 101
p 100 102
p 101 102
p 103 104
p 103 105
p 104 105
p 106 107
p 106 108
p 107 108
p 109 110
p 109 111
p 110 111
p 112 113
p 112 114
p 113 114
p 115 116
p 115 117
p 116 117
p 118 119
p 118 120
p 119 120
p 121 122
p 121 123
p 122 123
p 124 125
p 124 126
p 125 126
p 127 128
p 127 129
p 128 129
p 130 131
p 130 132
p 131 132
p 133 134
p 133 135
p 134 135
p 136 137
p 136 138
p 137 138
p 139 140
p 139 141
p 140 141
p 142 143
p 142 144
p 143 144
p 145 146
p 145 147
p 146 147
p 148 149
p 148 150
p 149 150
p 151 152
p 151 153
p 152 153
p 154 155
p 154 156
p 155 156
p 157 158
p 157 159
p 158 159
p 160 161
p 160 162
p 161 162
p 163 164
p 163 165
p 164 165
p 166 167
p 166 168
p 167 168
p 169 170
p 169 171
p 170 171
p 172 173
p 172 174
p 173 174
p 175 176
p 175 177
p 176 177
p 178 179
p 178 180
p 179 180
p 181 182
p 181 183
p 182 183
p 184 185
p 184 186
p 185 186
p 187 188
p 187 189
p 188 189
p 190 191
p 190 192
p 191 192
p 193 194
p 193 195
p 194 195
p 196 197
p 196 198
p 197 198
p 199 200
p 199 201
p 200 201
p 202 203
p 202 204
p 203 204
p 205 206
p 205 207
p 206 207
p 208 209
p 208 210
p 209 210
p 211 212
p 211 213
p 212 213
p 214 215
p 214 216
p 215 216
p 217 218
p 217 219
p 218 219
p 220 221
p 220 222
p 221 222
p 223 224
p 223 225
p 224 225
p 226 227
p 226 228
p 227 228
p 229 230
p 229 231
p 230 231
p 232 233
p 232 234
p 233 234
p 235 236
p 235 237
p 236 237
p 238 239
p 238 240
p 239 240
p 241 242
p 241 243
p 242 243
p 244 245
p 244 246
p 245 246
p 247 248
p 247 249
p 248 249
p 250 251
p 250 252
p 251 252
p 253 254
p 253 255
p 254 255
p 256 257
p 256 258
p 257 258
p 259 260
p 259 261
p 260 261
p 262 263
p 262 264
p 263 264
p 265 266
p 265 267
p 266 267
p 268 269
p 268 270
p 269 270
p 271 272
p 271 273
p 272 273
p 274 275
p 274 276
p 275 276
p 277 278
p 277 279
p 278 279
p 280 281
p 280 282
p 281 282
p 283 284
p 283 285
p 284 285
p 286 287
p 286 288
p 287 288
p 289 290
p 289 291
p 290 291
p 292 293
p 292 294
p 293 294
p 295 296
p 295 297
p 296 297
p 298 299
p 298 300
p 299 300
p 301 302
p 301 303
p 302 303
p 304 305
p 304 306
p 305 306
p 307 308
p 307 309
p 308 309
p 310 311
p 310 312
p 311 312
p 313 314
p 313 315
p 314 315
p 316 317
p 316 318
p 317 318
p 319 320
p 319 321
p 320 321
p 322 323
p 322 324
p 323 324
p 325 326
p 325 327
p 326 327
p 328 329
p 328 330
p 329 330
p 331 332
p 331 333
p 332 333
p 334 335
p 334 336
p 335 336
p 337 338
p 337 339
p 338 339
p 340 341
p 340 342
p 341 342
p 343 344
p 343 345
p 344 345
p 346 347
p 346 348
p 347 348
p 349 350
p 349 351
p 350 351
p 352 353
p 352 354
p 353 354
p 355 356
p 355 357
p 356 357
p 358 359
p 358 360
p 359 360
p 361 362
p 361 363
p 362 363
p 364 365
p 364 366
p 365 366
p 367 368
p 367 369
p 368 369
p 370 371
p 370 372
p 371 372
p 373 374
p 373 375
p 374 375
p 376 377
p 376 378
p 377 378
p 379 380
p 379 381
p 380 381
p 382 383
p 382 384
p 383 384
p 385 386
p 385 387
p 386 387
p 388 389
p 388 390
p 389 390
p 391 392
p 391 393
p 392 393
p 394 395
p 394 396
p 395 396
p 397 398
p 397 399
p 398 399
p 400 401
p 400 402
p 401 402
p 403 404
p 403 405
p 404 405
p 406 407
p 406 408
p 407 408
p 409 410
p 409 411
p 410 411
p 412 413
p 412 414
p 413 414
p 415 416
p 415 417
p 416 417
p 418 419
p 418 420
p 419 420
p 421 422
p 421 423
p 422 423
p 424 425
p 424 426
p 425 426
p 427 428
p 427 429
p 428 429
p 430 431
p 430 432
p 431 432
p 433 434
p 433 435
p 434 435
p 436 437
p 436 438
p 437 438
p 439 440
p 439 441
p 440 441
p 442 443
p 442 444
p 443 444
p 445 446
p 445 447
p 446 447
p 448 449
p 448 450
p 449 450
p 451 452
p 451 453
p 452 453
p 454 455
p 454 456
p 455 456
p 457 458
p 457 459
p 458 459
p 460 461
p 460 462
p 461 462
p 463 464
p 463 465
p 464 465
p 466 467
p 466 468
p 467 468
p 469 470
p 469 471
p 470 471
p 472 473
p 472 474
p 473 474
p 475 476
p 475 477
p 476 477
p 478 479
p 478 480
p 479 480
p 481 482
p 481 483
p 482 483
p 484 485
p 484 486
p 485 486
p 487 488
p 487 489
p 488 489
p 490 491
p 490 492
p 491 492
p 493 494
p 493 495
p 494 495
p 496 497
p 496 498
p 497 498
p 499 500
p 499 501
p 500 501
p 502 503
p 502 504
p 503 504
p 505 506
p 505 507
p 506 507
p 508 509
p 508 510
p 509 510
p 511 512
p 511 513
p 512 513
p 514 515
p 514 516
p 515 516
p 517 518
p 517 519
p 518 519
p 520 521
p 520 522
p 521 522
p 523 524
p 523 525
p 524 525
p 526 527
p 526 528
p 527 528
p 529 530
p 529 531
p 530 531
p 532 533
p 532 534
p 533 534
p 535 536
p 535 537
p 536 537
p 538 539
p 538 540
p 539 540
p 541 542
p 541 543
p 542 543
p 544 545
p 544 546
p 545 546
p 547 548
p 547 549
p 548 549
p 550 551
p 550 552
p 551 552
p 553 554
p 553 555
p 554 555
p 556 557
p 556 558
p 557 558
p 559 560
p 559 561
p 560 561
p 562 563
p 562 564
p 563 564
p 565 566
p 565 567
p 566 567
p 568 569
p 568 570
p 569 570
p 571 572
p 571 573
p 572 573
p 574 575
p 574 576
p 575 576
p 577 578
p 577 579
p 578 579
p 580 581
p 580 582
p 581 582
p 583 584
p 583 585
p 584 585
p 586 587
p 586 588
p 587 588
p 589 590
p 589 591
p 590 591
p 592 593
p 592 594
p 593 594
p 595 596
p 595 597
p 596 597
p 598 599
p 598 600
p 599 600
p 601 602
p 601 603
p 602 603
p 604 605
p 604 606
p 605 606
p 607 608
p 607 609
p 608 609
p 610 611
p 610 612
p 611 612
p 613 614
p 613 615
p 614 615
p 616 617
p 616 618
p 617 618
p 619 620
p 619 621
p 620 621
p 622 623
p 622 624
p 623 624
p 625 626
p 625 627
p 626 627
p 628 629
p 628 630
p 629 630
p 631 632
p 631 633
p 632 633
p 634 635
p 634 636
p 635 636
p 637 638
p 637 639
p 638 639
p 640 641
p 640 642
p 641 642
p 643 644
p 643 645
p 644 645
p 646 647
p 646 648
p 647 648
p 649 650
p 649 651
p 650 651
p 652 653
p 652 654
p 653 654
p 655 656
p 655 657
p 656 657
p 658 659
p 658 660
p 659 660
p 661 662
p 661 663
p 662 663
p 664 665
p 664 666
p 665 666
p 667 668
p 667 669
p 668 669
p 670 671
p 670 672
p 671 672
p 673 674
p 673 675
p 674 675
p 676 677
p 676 678
p 677 678
p 679 680
p 679 681
p 680 681
p 682 683
p 682 684
p 683 684
p 685 686
p 685 687
p 686 687
p 688 689
p 688 690
p 689 690
p 691 692
p 691 693
p 692 693
p 694 695
p 694 696
p 695 696
p 697 698
p 697 699
p 698 699
p 700 701
p 700 702
p 701 702
p 703 704
p 703 705
p 704 705
p 706 707
p 706 708
p 707 708
p 709 710
p 709 711
p 710 711
p 712 713
p 712 714
p 713 714
p 715 716
p 715 717
p 716 717
p 718 719
p 718 720
p 719 720
p 721 722
p 721 723
p 722 723
p 724 725
p 724 726
p 725 726
p 727 728
p 727 729
p 728 729
p 730 731
p 730 732
p 731 732
p 733 734
p 733 735
p 734 735
p 736 737
p 736 738
p 737 738
p 739 740
p 739 741
p 740 741
p 742 743
p 742 744
p 743 744
p 745 746
p 745 747
p 746 747
p 748 749
p 748 750
p 749 750
p 751 752
p 751 753
p 752 753
p 754 755
p 754 756
p 755 756
p 757 758
p 757 759
p 758 759
p 760 761
p 760 762
p 761 762
p 763 764
p 763 765
p 764 765
p 766 767
p 766 768
p 767 768
p 769 770
p 769 771
p 770 771
p 772 773
p 772 774
p 773 774
p 775 776
p 775 777
p 776 777
p 778 779
p 778 780
p 779 780
p 781 782
p 781 783
p 782 783
p 784 785
p 784 786
p 785 786
p 787 788
p 787 789
p 788 789
p 790 791
p 790 792
p 791 792
p 793 794
p 793 795
p 794 795
p 796 797
p 796 798
p 797 798
p 799 800
p 799 801
p 800 801
p 802 803
p 802 804
p 803 804
p 805 806
p 805 807
p 806 807
p 808 809
p 808 810
p 809 810
p 811 812
p 811 813
p 812 813
p 814 815
p 814 816
p 815 816
p 817 818
p 817 819
p 818 819
p 820 821
p 820 822
p 821 822
p 823 824
p 823 825
p 824 825
p 826 827
p 826 828
p 827 828
p 829 830
p 829 831
p 830 831
p 832 833
p 832 834
p 833 834
p 835 836
p 835 837
p 836 837
p 838 839
p 838 840
p 839 840
p 841 842
p 841 843
p 842 843
p 844 845
p 844 846
p 845 846
p 847 848
p 847 849
p 848 849
p 850 851
p 850 852
p 851 852
p 853 854
p 853 855
p 854 855
p 856 857
p 856 858
p 857 858
p 859 860
p 859 861
p 860 861
p 862 863
p 862 864
p 863 864
p 865 866
p 865 867
p 866 867
p 868 869
p 868 870
p 869 870
p 871 872
p 871 873
p 872 873
p 874 875
p 874 876
p 875 876
p 877 878
p 877 879
p 878 879
p 880 881
p 880 882
p 881 882
p 883 884
p 883 885
p 884 885
p 886 887
p 886 888
p 887 888
p 889 890
p 889 891
p 890 891
p 892 893
p 892 894
p 893 894
p 895 896
p 895 897
p 896 897
p 898 899
p 898 900
p 899 900
p 901 902
p 901 903
p 902 903
p 904 905
p 904 906
p 905 906
p 907 908
p 907 909
p 908 909
p 910 911
p 910 912
p 911 912
p 913 914
p 913 915
p 914 915
p 916 917
p 916 918
p 917 918
p 919 920
p 919 921
p 920 921
p 922 923
p 922 924
p 923 924
p 925 926
p 925 927
p 926 927
p 928 929
p 928 930
p 929 930
p 931 932
p 931 933
p 932 933
p 934 935
p 934 936
p 935 936
p 937 938
p 937 939
p 938 939
p 940 941
p 940 942
p 941 942
p 943 944
p 943 945
p 944 945
p 946 947
p 946 948
p 947 948
p 949 950
p 949 951
p 950 951
p 952 953
p 952 954
p 953 954
p 955 956
p 955 957
p 956 957
p 958 959
p 958 960
p 959 960
p 961 962
p 961 963
p 962 963
p 964 965
p 964 966
p 965 966
p 967 968
p 967 969
p 968 969
p 970 971
p 970 972
p 971 972
p 973 974
p 973 975
p 974 975
p 976 977
p 976 978
p 977 978
p 979 980
p 979 981
p 980 981
p 982 983
p 982 984
p 983 984
p 985 986
p 985 987
p 986 987
p 988 989
p 988 990
p 989 990
p 991 992
p 991 993
p 992 993
p 994 995
p 994 996
p 995 996
p 997 998
p 997 999
p 998 999
p 1000 1001
p 1000 1002
p 1001 1002
p 1003 1004
p 1003 1005
p 1004 1005
p 1006 1007
p 1006 1008
p 1007 1008
p 1009 1010
p 1009 1011
p 1010 1011
p 1012 1013
p 1012 1014
p 1013 1014
p 1015 1016
p 1015 1017
p 1016 1017
p 1018 1019
p 1018 1020
p 1019 1020
p 1021 1022
p 1021 1023
p 1022 1023
p 1024 1025
p 1024 1026
p 1025 1026
p 1027 1028
p 1027 1029
p 1028 1029
p 1030 1031
p 1030 1032
p 1031 1032
p 1033 1034
p 1033 1035
p 1034 1035
